# Objective value = 586
c_n0n2n3n5n12n13n15 7
c_n0n5n6n8n9n11n13 7
c_n0n5n11n13n15 5
c_n2n3n5n12n13n15 6
c_n0n3n5n12n13n15 5
c_n0n2n5n12n13n15 6
c_n0n2n3n12n13n15 5
c_n0n2n3n5n13n15 5
c_n0n2n3n5n12n15 5
c_n0n2n3n5n12n13 5
c_n5n6n8n9n11n13 5
c_n0n6n8n9n11n13 6
c_n0n5n8n9n11n13 6
c_n0n5n6n9n11n13 5
c_n0n5n6n8n11n13 5
c_n0n5n6n8n9n13 5
c_n0n5n6n8n9n11 5
c_n5n11n13n15 3
c_n0n11n13n15 3
c_n0n5n13n15 4
c_n0n5n11n15 3
c_n0n5n11n13 4
c_n3n5n12n13n15 4
c_n2n5n12n13n15 5
c_n2n3n12n13n15 4
c_n2n3n5n13n15 4
c_n2n3n5n12n15 5
c_n2n3n5n12n13 4
c_n0n5n12n13n15 5
c_n0n3n12n13n15 3
c_n0n3n5n13n15 4
c_n0n3n5n12n15 3
c_n0n3n5n12n13 3
c_n0n2n12n13n15 4
c_n0n2n5n13n15 4
c_n0n2n5n12n15 4
c_n0n2n5n12n13 4
c_n0n2n3n13n15 3
c_n0n2n3n12n15 4
c_n0n2n3n12n13 4
c_n0n2n3n5n15 3
c_n0n2n3n5n13 4
c_n0n2n3n5n12 3
c_n6n8n9n11n13 4
c_n5n8n9n11n13 4
c_n5n6n9n11n13 3
c_n5n6n8n11n13 3
c_n5n6n8n9n13 4
c_n5n6n8n9n11 4
c_n0n8n9n11n13 5
c_n0n6n9n11n13 4
c_n0n6n8n11n13 4
c_n0n6n8n9n13 4
c_n0n6n8n9n11 5
c_n0n5n9n11n13 5
c_n0n5n8n11n13 4
c_n0n5n8n9n13 4
c_n0n5n8n9n11 4
c_n0n5n6n11n13 4
c_n0n5n6n9n13 3
c_n0n5n6n9n11 3
c_n0n5n6n8n13 4
c_n0n5n6n8n11 3
c_n0n5n6n8n9 3
c_n11n13n15 1
c_n5n13n15 3
c_n5n11n15 2
c_n5n11n13 2
c_n0n13n15 2
c_n0n11n15 2
c_n0n11n13 3
c_n0n5n15 2
c_n0n5n13 3
c_n0n5n11 2
c_n5n12n13n15 4
c_n3n12n13n15 2
c_n3n5n13n15 3
c_n3n5n12n15 3
c_n3n5n12n13 2
c_n2n12n13n15 3
c_n2n5n13n15 3
c_n2n5n12n15 4
c_n2n5n12n13 3
c_n2n3n13n15 2
c_n2n3n12n15 4
c_n2n3n12n13 3
c_n2n3n5n15 3
c_n2n3n5n13 3
c_n2n3n5n12 3
c_n0n12n13n15 3
c_n0n5n12n15 3
c_n0n5n12n13 3
c_n0n3n13n15 2
c_n0n3n12n15 2
c_n0n3n12n13 2
c_n0n3n5n15 2
c_n0n3n5n13 3
c_n0n3n5n12 1
c_n0n2n13n15 2
c_n0n2n12n15 3
c_n0n2n12n13 3
c_n0n2n5n15 2
c_n0n2n5n13 3
c_n0n2n5n12 2
c_n0n2n3n15 2
c_n0n2n3n13 3
c_n0n2n3n12 3
c_n0n2n3n5 2
c_n8n9n11n13 3
c_n6n9n11n13 2
c_n6n8n11n13 2
c_n6n8n9n13 3
c_n6n8n9n11 4
c_n5n9n11n13 3
c_n5n8n11n13 2
c_n5n8n9n13 3
c_n5n8n9n11 3
c_n5n6n11n13 2
c_n5n6n9n13 2
c_n5n6n9n11 2
c_n5n6n8n13 3
c_n5n6n8n11 2
c_n5n6n8n9 3
c_n0n9n11n13 4
c_n0n8n11n13 3
c_n0n8n9n13 3
c_n0n8n9n11 4
c_n0n6n11n13 3
c_n0n6n9n13 2
c_n0n6n9n11 3
c_n0n6n8n13 3
c_n0n6n8n11 3
c_n0n6n8n9 3
c_n0n5n9n13 3
c_n0n5n9n11 3
c_n0n5n8n13 3
c_n0n5n8n11 2
c_n0n5n8n9 2
c_n0n5n6n13 3
c_n0n5n6n11 2
c_n0n5n6n9 1
c_n0n5n6n8 2
c_n12n13n15 2
c_n5n12n15 3
c_n5n12n13 2
c_n3n13n15 1
c_n3n12n15 2
c_n3n12n13 1
c_n3n5n15 2
c_n3n5n13 2
c_n3n5n12 1
c_n2n13n15 1
c_n2n12n15 3
c_n2n12n13 2
c_n2n5n15 2
c_n2n5n13 2
c_n2n5n12 2
c_n2n3n15 2
c_n2n3n13 2
c_n2n3n12 3
c_n2n3n5 2
c_n0n12n15 2
c_n0n12n13 2
c_n0n5n12 1
c_n0n3n15 1
c_n0n3n13 2
c_n0n3n12 1
c_n0n3n5 1
c_n0n2n15 1
c_n0n2n13 2
c_n0n2n12 2
c_n0n2n5 1
c_n0n2n3 2
c_n9n11n13 2
c_n8n11n13 1
c_n8n9n13 2
c_n8n9n11 3
c_n6n11n13 1
c_n6n9n13 1
c_n6n9n11 2
c_n6n8n13 2
c_n6n8n11 2
c_n6n8n9 3
c_n5n9n13 2
c_n5n9n11 2
c_n5n8n13 2
c_n5n8n11 1
c_n5n8n9 2
c_n5n6n13 2
c_n5n6n11 1
c_n5n6n9 1
c_n5n6n8 2
c_n0n9n13 2
c_n0n9n11 3
c_n0n8n13 2
c_n0n8n11 2
c_n0n8n9 2
c_n0n6n13 2
c_n0n6n11 2
c_n0n6n9 1
c_n0n6n8 2
c_n0n5n9 1
c_n0n5n8 1
c_n0n5n6 1
y_n0n1 0
y_n1n2 1
y_n0n2 0
y_n1n3 1
y_n0n3 0
y_n1n4 1
y_n0n4 1
y_n1n5 1
y_n0n5 0
y_n1n6 1
y_n0n6 1
y_n1n7 1
y_n0n7 1
y_n1n8 1
y_n0n8 1
y_n1n9 1
y_n0n9 1
y_n1n10 0
y_n0n10 0
y_n1n11 1
y_n0n11 1
y_n1n12 1
y_n0n12 0
y_n1n13 1
y_n0n13 0
y_n1n14 1
y_n0n14 1
y_n1n15 1
y_n0n15 0
y_n2n3 0
y_n2n4 1
y_n2n5 1
y_n2n6 1
y_n2n7 1
y_n2n8 1
y_n2n9 1
y_n2n10 0
y_n2n11 1
y_n2n12 1
y_n2n13 1
y_n2n14 1
y_n2n15 1
y_n3n4 1
y_n3n5 1
y_n3n6 1
y_n3n7 1
y_n3n8 1
y_n3n9 1
y_n3n10 0
y_n3n11 1
y_n3n12 1
y_n3n13 1
y_n3n14 1
y_n3n15 1
y_n4n5 0
y_n4n6 0
y_n4n7 0
y_n4n8 0
y_n4n9 0
y_n4n10 0
y_n4n11 0
y_n4n12 0
y_n4n13 0
y_n4n14 0
y_n4n15 0
y_n5n6 1
y_n5n7 1
y_n5n8 1
y_n5n9 1
y_n5n10 0
y_n5n11 1
y_n5n12 0
y_n5n13 1
y_n5n14 1
y_n5n15 0
y_n6n7 1
y_n6n8 0
y_n6n9 0
y_n6n10 0
y_n6n11 0
y_n6n12 0
y_n6n13 0
y_n6n14 1
y_n6n15 0
y_n7n8 0
y_n7n9 0
y_n7n10 0
y_n7n11 0
y_n7n12 0
y_n7n13 0
y_n7n14 0
y_n7n15 0
y_n8n9 0
y_n8n10 0
y_n8n11 0
y_n8n12 0
y_n8n13 0
y_n8n14 1
y_n8n15 0
y_n9n10 0
y_n9n11 0
y_n9n12 0
y_n9n13 0
y_n9n14 1
y_n9n15 0
y_n10n11 1
y_n10n12 1
y_n10n13 1
y_n10n14 1
y_n10n15 1
y_n11n12 0
y_n11n13 0
y_n11n14 1
y_n11n15 0
y_n12n13 1
y_n12n14 1
y_n12n15 1
y_n13n14 1
y_n13n15 0
y_n14n15 0
pos_n0 8
pos_n1 1
pos_n2 3
pos_n3 2
pos_n4 15
pos_n5 6
pos_n6 12
pos_n7 14
pos_n8 11
pos_n9 10
pos_n10 0
pos_n11 9
pos_n12 4
pos_n13 7
pos_n14 13
pos_n15 5
z_n6n11 0
z_n5n11 0
z_n8n11 0
z_n9n11 1
z_n11n13 0
z_n2n11 0
z_n3n11 0
z_n11n12 0
z_n11n15 0
z_n7n11 0
z_n5n6 0
z_n6n8 1
z_n6n9 0
z_n6n13 0
z_n2n6 0
z_n3n6 0
z_n6n12 0
z_n6n15 0
z_n6n7 0
z_n5n8 0
z_n5n9 0
z_n5n13 1
z_n2n5 0
z_n3n5 0
z_n5n12 0
z_n5n15 1
z_n5n7 0
z_n8n9 1
z_n8n13 0
z_n2n8 0
z_n3n8 0
z_n8n12 0
z_n8n15 0
z_n7n8 0
z_n9n13 0
z_n2n9 0
z_n3n9 0
z_n9n12 0
z_n9n15 0
z_n7n9 0
z_n2n13 0
z_n3n13 0
z_n12n13 0
z_n13n15 0
z_n7n13 0
z_n2n3 1
z_n2n12 1
z_n2n15 0
z_n2n7 0
z_n3n12 0
z_n3n15 0
z_n3n7 0
z_n12n15 1
z_n7n12 0
z_n7n15 0
z_n2n4 0
z_n0n5 0
z_n1n5 0
z_n0n3 0
z_n0n13 1
z_n0n12 0
z_n0n15 0
z_n0n1 0
z_n1n3 0
z_n1n13 0
z_n1n12 0
z_n1n15 0
z_n0n2 0
z_n1n10 0
z_n0n11 1
z_n0n6 0
z_n0n8 0
z_n0n9 0
z_n4n14 0
